# Solution for model Food_Bank
# Objective value = 1.2220761309955773e+05
x_1_44 1
x_1_198 1
x_1_202 1
x_1_47 1
x_1_197 1
x_1_199 1
x_1_29 1
x_1_97 1
x_1_15 1
x_1_43 1
x_1_123 1
x_1_42 0
x_1_205 1
x_1_122 1
x_1_133 0
x_1_220 1
x_1_101 0
x_1_86 1
x_1_17 1
x_1_130 1
x_1_208 1
x_1_214 1
x_1_146 1
y_44_93 0
y_44_80 1
y_44_68 0
y_44_67 0
y_44_63 0
y_44_92 0
y_44_82 0
y_44_66 0
y_44_56 0
y_44_40 0
y_198_93 1
y_198_80 0
y_198_68 0
y_198_67 0
y_198_63 0
y_198_92 0
y_198_82 0
y_198_66 0
y_198_56 0
y_198_40 0
y_202_93 0
y_202_80 0
y_202_68 0
y_202_67 0
y_202_63 0
y_202_92 0
y_202_82 0
y_202_66 0
y_202_56 0
y_202_40 1
y_47_93 0
y_47_80 1
y_47_68 0
y_47_67 0
y_47_63 0
y_47_92 0
y_47_82 0
y_47_66 0
y_47_56 0
y_47_40 0
y_197_93 0
y_197_80 0
y_197_68 0
y_197_67 0
y_197_63 1
y_197_92 0
y_197_82 0
y_197_66 0
y_197_56 0
y_197_40 0
y_199_93 1
y_199_80 0
y_199_68 0
y_199_67 0
y_199_63 0
y_199_92 0
y_199_82 0
y_199_66 0
y_199_56 0
y_199_40 0
y_29_93 0
y_29_80 0
y_29_68 0
y_29_67 1
y_29_63 0
y_29_92 0
y_29_82 0
y_29_66 0
y_29_56 0
y_29_40 0
y_97_93 0
y_97_80 0
y_97_68 0
y_97_67 1
y_97_63 0
y_97_92 0
y_97_82 0
y_97_66 0
y_97_56 0
y_97_40 0
y_15_93 0
y_15_80 0
y_15_68 0
y_15_67 0
y_15_63 0
y_15_92 0
y_15_82 0
y_15_66 0
y_15_56 1
y_15_40 0
y_43_93 0
y_43_80 0
y_43_68 0
y_43_67 0
y_43_63 0
y_43_92 0
y_43_82 1
y_43_66 0
y_43_56 0
y_43_40 0
y_123_93 0
y_123_80 0
y_123_68 0
y_123_67 0
y_123_63 0
y_123_92 0
y_123_82 0
y_123_66 1
y_123_56 0
y_123_40 0
y_42_93 0
y_42_80 0
y_42_68 0
y_42_67 0
y_42_63 0
y_42_92 0
y_42_82 0
y_42_66 0
y_42_56 0
y_42_40 0
y_205_93 0
y_205_80 0
y_205_68 0
y_205_67 0
y_205_63 0
y_205_92 0
y_205_82 0
y_205_66 0
y_205_56 0
y_205_40 1
y_122_93 0
y_122_80 0
y_122_68 0
y_122_67 0
y_122_63 0
y_122_92 0
y_122_82 1
y_122_66 0
y_122_56 0
y_122_40 0
y_133_93 0
y_133_80 0
y_133_68 0
y_133_67 0
y_133_63 0
y_133_92 0
y_133_82 0
y_133_66 0
y_133_56 0
y_133_40 0
y_220_93 0
y_220_80 0
y_220_68 0
y_220_67 0
y_220_63 1
y_220_92 0
y_220_82 0
y_220_66 0
y_220_56 0
y_220_40 0
y_101_93 0
y_101_80 0
y_101_68 0
y_101_67 0
y_101_63 0
y_101_92 0
y_101_82 0
y_101_66 0
y_101_56 0
y_101_40 0
y_86_93 0
y_86_80 0
y_86_68 1
y_86_67 0
y_86_63 0
y_86_92 0
y_86_82 0
y_86_66 0
y_86_56 0
y_86_40 0
y_17_93 0
y_17_80 0
y_17_68 0
y_17_67 0
y_17_63 0
y_17_92 0
y_17_82 0
y_17_66 1
y_17_56 0
y_17_40 0
y_130_93 0
y_130_80 0
y_130_68 0
y_130_67 0
y_130_63 0
y_130_92 1
y_130_82 0
y_130_66 0
y_130_56 0
y_130_40 0
y_208_93 0
y_208_80 0
y_208_68 0
y_208_67 0
y_208_63 0
y_208_92 1
y_208_82 0
y_208_66 0
y_208_56 0
y_208_40 0
y_214_93 0
y_214_80 0
y_214_68 0
y_214_67 0
y_214_63 0
y_214_92 0
y_214_82 0
y_214_66 0
y_214_56 1
y_214_40 0
y_146_93 0
y_146_80 0
y_146_68 1
y_146_67 0
y_146_63 0
y_146_92 0
y_146_82 0
y_146_66 0
y_146_56 0
y_146_40 0
aFP_1_44 6.0473348946479955e+03
aFP_1_198 7.9714844326657994e+03
aFP_1_202 4.6005823314796453e+03
aFP_1_47 6.0473348946480082e+03
aFP_1_197 4.3720191515763645e+03
aFP_1_199 7.9714844326657876e+03
aFP_1_29 3.5430032012093184e+03
aFP_1_97 2.0664432678759763e+03
aFP_1_15 2.0695190080260245e+03
aFP_1_43 1.1071386561811125e+04
aFP_1_123 1.2688463742426954e+03
aFP_1_42 0
aFP_1_205 4.6005823314796244e+03
aFP_1_122 1.1071386561807438e+04
aFP_1_133 0
aFP_1_220 4.3720191515763736e+03
aFP_1_101 0
aFP_1_86 5.6284404483341368e+03
aFP_1_17 2.1672261075760289e+03
aFP_1_130 1.8306456032199055e+03
aFP_1_208 1.8306456032199696e+03
aFP_1_214 2.0695190080260645e+03
aFP_1_146 5.6284404483340995e+03
aPZ_44_93 0
aPZ_198_93 7.9714844326657994e+03
aPZ_202_93 0
aPZ_47_93 0
aPZ_197_93 0
aPZ_199_93 7.9714844326657876e+03
aPZ_29_93 0
aPZ_97_93 0
aPZ_15_93 0
aPZ_43_93 0
aPZ_123_93 0
aPZ_42_93 0
aPZ_205_93 0
aPZ_122_93 0
aPZ_133_93 0
aPZ_220_93 0
aPZ_101_93 0
aPZ_86_93 0
aPZ_17_93 0
aPZ_130_93 0
aPZ_208_93 0
aPZ_214_93 0
aPZ_146_93 0
aPZ_44_80 6.0473348946480110e+03
aPZ_198_80 0
aPZ_202_80 0
aPZ_47_80 6.0473348946480082e+03
aPZ_197_80 0
aPZ_199_80 0
aPZ_29_80 0
aPZ_97_80 0
aPZ_15_80 0
aPZ_43_80 0
aPZ_123_80 0
aPZ_42_80 0
aPZ_205_80 0
aPZ_122_80 0
aPZ_133_80 0
aPZ_220_80 0
aPZ_101_80 0
aPZ_86_80 0
aPZ_17_80 0
aPZ_130_80 0
aPZ_208_80 0
aPZ_214_80 0
aPZ_146_80 0
aPZ_44_68 0
aPZ_198_68 0
aPZ_202_68 0
aPZ_47_68 0
aPZ_197_68 0
aPZ_199_68 0
aPZ_29_68 0
aPZ_97_68 0
aPZ_15_68 0
aPZ_43_68 0
aPZ_123_68 0
aPZ_42_68 0
aPZ_205_68 0
aPZ_122_68 0
aPZ_133_68 0
aPZ_220_68 0
aPZ_101_68 0
aPZ_86_68 5.6284404483341368e+03
aPZ_17_68 0
aPZ_130_68 0
aPZ_208_68 0
aPZ_214_68 0
aPZ_146_68 5.6284404483341332e+03
aPZ_44_67 0
aPZ_198_67 0
aPZ_202_67 0
aPZ_47_67 0
aPZ_197_67 0
aPZ_199_67 0
aPZ_29_67 3.5430032012093488e+03
aPZ_97_67 2.0664432678759931e+03
aPZ_15_67 0
aPZ_43_67 0
aPZ_123_67 0
aPZ_42_67 0
aPZ_205_67 0
aPZ_122_67 0
aPZ_133_67 0
aPZ_220_67 0
aPZ_101_67 0
aPZ_86_67 0
aPZ_17_67 0
aPZ_130_67 0
aPZ_208_67 0
aPZ_214_67 0
aPZ_146_67 0
aPZ_44_63 0
aPZ_198_63 0
aPZ_202_63 0
aPZ_47_63 0
aPZ_197_63 4.3720191515763736e+03
aPZ_199_63 0
aPZ_29_63 0
aPZ_97_63 0
aPZ_15_63 0
aPZ_43_63 0
aPZ_123_63 0
aPZ_42_63 0
aPZ_205_63 0
aPZ_122_63 0
aPZ_133_63 0
aPZ_220_63 4.3720191515763736e+03
aPZ_101_63 0
aPZ_86_63 0
aPZ_17_63 0
aPZ_130_63 0
aPZ_208_63 0
aPZ_214_63 0
aPZ_146_63 0
aPZ_44_92 0
aPZ_198_92 0
aPZ_202_92 0
aPZ_47_92 0
aPZ_197_92 0
aPZ_199_92 0
aPZ_29_92 0
aPZ_97_92 0
aPZ_15_92 0
aPZ_43_92 0
aPZ_123_92 0
aPZ_42_92 0
aPZ_205_92 0
aPZ_122_92 0
aPZ_133_92 0
aPZ_220_92 0
aPZ_101_92 0
aPZ_86_92 0
aPZ_17_92 0
aPZ_130_92 1.8306456032195269e+03
aPZ_208_92 1.8306456032199696e+03
aPZ_214_92 0
aPZ_146_92 0
aPZ_44_82 0
aPZ_198_82 0
aPZ_202_82 0
aPZ_47_82 0
aPZ_197_82 0
aPZ_199_82 0
aPZ_29_82 0
aPZ_97_82 0
aPZ_15_82 0
aPZ_43_82 1.1071386561811125e+04
aPZ_123_82 0
aPZ_42_82 0
aPZ_205_82 0
aPZ_122_82 1.1071386561807438e+04
aPZ_133_82 0
aPZ_220_82 0
aPZ_101_82 0
aPZ_86_82 0
aPZ_17_82 0
aPZ_130_82 0
aPZ_208_82 0
aPZ_214_82 0
aPZ_146_82 0
aPZ_44_66 0
aPZ_198_66 0
aPZ_202_66 0
aPZ_47_66 0
aPZ_197_66 0
aPZ_199_66 0
aPZ_29_66 0
aPZ_97_66 0
aPZ_15_66 0
aPZ_43_66 0
aPZ_123_66 1.2688463742426829e+03
aPZ_42_66 0
aPZ_205_66 0
aPZ_122_66 0
aPZ_133_66 0
aPZ_220_66 0
aPZ_101_66 0
aPZ_86_66 0
aPZ_17_66 2.1672261075758252e+03
aPZ_130_66 0
aPZ_208_66 0
aPZ_214_66 0
aPZ_146_66 0
aPZ_44_56 0
aPZ_198_56 0
aPZ_202_56 0
aPZ_47_56 0
aPZ_197_56 0
aPZ_199_56 0
aPZ_29_56 0
aPZ_97_56 0
aPZ_15_56 2.0695190080260245e+03
aPZ_43_56 0
aPZ_123_56 0
aPZ_42_56 0
aPZ_205_56 0
aPZ_122_56 0
aPZ_133_56 0
aPZ_220_56 0
aPZ_101_56 0
aPZ_86_56 0
aPZ_17_56 0
aPZ_130_56 0
aPZ_208_56 0
aPZ_214_56 2.0695190080260645e+03
aPZ_146_56 0
aPZ_44_40 0
aPZ_198_40 0
aPZ_202_40 4.6005823314796453e+03
aPZ_47_40 0
aPZ_197_40 0
aPZ_199_40 0
aPZ_29_40 0
aPZ_97_40 0
aPZ_15_40 0
aPZ_43_40 0
aPZ_123_40 0
aPZ_42_40 0
aPZ_205_40 4.6005823314794161e+03
aPZ_122_40 0
aPZ_133_40 0
aPZ_220_40 0
aPZ_101_40 0
aPZ_86_40 0
aPZ_17_40 0
aPZ_130_40 0
aPZ_208_40 0
aPZ_214_40 0
aPZ_146_40 0
nT_1_44 1
nT_1_198 1
nT_1_202 1
nT_1_47 1
nT_1_197 1
nT_1_199 1
nT_1_29 1
nT_1_97 1
nT_1_15 1
nT_1_43 2
nT_1_123 1
nT_1_42 0
nT_1_205 1
nT_1_122 2
nT_1_133 0
nT_1_220 1
nT_1_101 0
nT_1_86 1
nT_1_17 1
nT_1_130 1
nT_1_208 1
nT_1_214 1
nT_1_146 1
ort_1_44 48
ort_1_198 48
ort_1_202 48
ort_1_47 48
ort_1_197 48
ort_1_199 48
ort_1_29 80
ort_1_97 48
ort_1_15 48
ort_1_43 48
ort_1_123 48
ort_1_42 0
ort_1_205 48
ort_1_122 48
ort_1_133 0
ort_1_220 48
ort_1_101 0
ort_1_86 48
ort_1_17 80
ort_1_130 80
ort_1_208 80
ort_1_214 48
ort_1_146 48
opt_1_44 4.7690966588610614e+01
opt_1_198 4.7461425778357807e+01
opt_1_202 4.7563304216759526e+01
opt_1_47 4.7484299921914385e+01
opt_1_197 4.7514732375733729e+01
opt_1_199 4.7288092445025427e+01
opt_1_29 7.9496183173252575e+01
opt_1_97 4.7570011169950305e+01
opt_1_15 4.7563190716256713e+01
opt_1_43 4.7113097338564785e+01
opt_1_123 4.7596557681270269e+01
opt_1_42 0
opt_1_205 4.7383304216724355e+01
opt_1_122 4.7033097338559642e+01
opt_1_133 0
opt_1_220 4.7361399042412586e+01
opt_1_101 0
opt_1_86 4.7251911310916618e+01
opt_1_17 7.9418305361279181e+01
opt_1_130 7.9435134386575783e+01
opt_1_208 7.9435134386505666e+01
opt_1_214 4.7416524049578584e+01
opt_1_146 4.7231911310903342e+01
dt_44_93 0
dt_44_80 4.5565672131261010e+00
dt_44_68 0
dt_44_67 0
dt_44_63 0
dt_44_92 0
dt_44_82 0
dt_44_66 0
dt_44_56 0
dt_44_40 0
dt_198_93 5.0300195514333765e+00
dt_198_80 0
dt_198_68 0
dt_198_67 0
dt_198_63 0
dt_198_92 0
dt_198_82 0
dt_198_66 0
dt_198_56 0
dt_198_40 0
dt_202_93 0
dt_202_80 0
dt_202_68 0
dt_202_67 0
dt_202_63 0
dt_202_92 0
dt_202_82 0
dt_202_66 0
dt_202_56 0
dt_202_40 3.6022038160176351e+00
dt_47_93 0
dt_47_80 4.5565672131261223e+00
dt_47_68 0
dt_47_67 0
dt_47_63 0
dt_47_92 0
dt_47_82 0
dt_47_66 0
dt_47_56 0
dt_47_40 0
dt_197_93 0
dt_197_80 0
dt_197_68 0
dt_197_67 0
dt_197_63 3.6342067030527190e+00
dt_197_92 0
dt_197_82 0
dt_197_66 0
dt_197_56 0
dt_197_40 0
dt_199_93 5.0300195514334405e+00
dt_199_80 0
dt_199_68 0
dt_199_67 0
dt_199_63 0
dt_199_92 0
dt_199_82 0
dt_199_66 0
dt_199_56 0
dt_199_40 0
dt_29_93 0
dt_29_80 0
dt_29_68 0
dt_29_67 3.2160511204224207e+00
dt_29_63 0
dt_29_92 0
dt_29_82 0
dt_29_66 0
dt_29_56 0
dt_29_40 0
dt_97_93 0
dt_97_80 0
dt_97_68 0
dt_97_67 3.2160511204228968e+00
dt_97_63 0
dt_97_92 0
dt_97_82 0
dt_97_66 0
dt_97_56 0
dt_97_40 0
dt_15_93 0
dt_15_80 0
dt_15_68 0
dt_15_67 0
dt_15_63 0
dt_15_92 0
dt_15_82 0
dt_15_66 0
dt_15_56 2.7803316528083286e+00
dt_15_40 0
dt_43_93 0
dt_43_80 0
dt_43_68 0
dt_43_67 0
dt_43_63 0
dt_43_92 0
dt_43_82 6.2829852966358786e+00
dt_43_66 0
dt_43_56 0
dt_43_40 0
dt_123_93 0
dt_123_80 0
dt_123_68 0
dt_123_67 0
dt_123_63 0
dt_123_92 0
dt_123_82 0
dt_123_66 2.8040962309859339e+00
dt_123_56 0
dt_123_40 0
dt_42_93 0
dt_42_80 0
dt_42_68 0
dt_42_67 0
dt_42_63 0
dt_42_92 0
dt_42_82 0
dt_42_66 0
dt_42_56 0
dt_42_40 0
dt_205_93 0
dt_205_80 0
dt_205_68 0
dt_205_67 0
dt_205_63 0
dt_205_92 0
dt_205_82 0
dt_205_66 0
dt_205_56 0
dt_205_40 3.6022038160199088e+00
dt_122_93 0
dt_122_80 0
dt_122_68 0
dt_122_67 0
dt_122_63 0
dt_122_92 0
dt_122_82 6.2829852966522992e+00
dt_122_66 0
dt_122_56 0
dt_122_40 0
dt_133_93 0
dt_133_80 0
dt_133_68 0
dt_133_67 0
dt_133_63 0
dt_133_92 0
dt_133_82 0
dt_133_66 0
dt_133_56 0
dt_133_40 0
dt_220_93 0
dt_220_80 0
dt_220_68 0
dt_220_67 0
dt_220_63 3.6342067030527190e+00
dt_220_92 0
dt_220_82 0
dt_220_66 0
dt_220_56 0
dt_220_40 0
dt_101_93 0
dt_101_80 0
dt_101_68 0
dt_101_67 0
dt_101_63 0
dt_101_92 0
dt_101_82 0
dt_101_66 0
dt_101_56 0
dt_101_40 0
dt_86_93 0
dt_86_80 0
dt_86_68 4.1539541569169174e+00
dt_86_67 0
dt_86_63 0
dt_86_92 0
dt_86_82 0
dt_86_66 0
dt_86_56 0
dt_86_40 0
dt_17_93 0
dt_17_80 0
dt_17_68 0
dt_17_67 0
dt_17_63 0
dt_17_92 0
dt_17_82 0
dt_17_66 2.8040962309872839e+00
dt_17_56 0
dt_17_40 0
dt_130_93 0
dt_130_80 0
dt_130_68 0
dt_130_67 0
dt_130_63 0
dt_130_92 2.7767259611449759e+00
dt_130_82 0
dt_130_66 0
dt_130_56 0
dt_130_40 0
dt_208_93 0
dt_208_80 0
dt_208_68 0
dt_208_67 0
dt_208_63 0
dt_208_92 2.7767259611281645e+00
dt_208_82 0
dt_208_66 0
dt_208_56 0
dt_208_40 0
dt_214_93 0
dt_214_80 0
dt_214_68 0
dt_214_67 0
dt_214_63 0
dt_214_92 0
dt_214_82 0
dt_214_66 0
dt_214_56 2.7803316528083144e+00
dt_214_40 0
dt_146_93 0
dt_146_80 0
dt_146_68 4.1539541569169458e+00
dt_146_67 0
dt_146_63 0
dt_146_92 0
dt_146_82 0
dt_146_66 0
dt_146_56 0
dt_146_40 0
ut_1_44 2.1165672131267983e+00
ut_1_198 2.79001955143303
ut_1_202 1.6102038160178758e+00
ut_1_47 2.1165672131268027e+00
ut_1_197 1.5302067030517275e+00
ut_1_199 2.7900195514330255e+00
ut_1_29 1.2400511204232614e+00
ut_1_97 7.2325514375659172e-01
ut_1_15 7.2433165280910861e-01
ut_1_43 3.8749852966338936e+00
ut_1_123 4.4409623098494339e-01
ut_1_42 0
ut_1_205 1.6102038160178684e+00
ut_1_122 3.8749852966326030e+00
ut_1_133 0
ut_1_220 1.5302067030517308e+00
ut_1_101 0
ut_1_86 1.9699541569169479e+00
ut_1_17 7.5852913765161012e-01
ut_1_130 6.4072596112696689e-01
ut_1_208 6.4072596112698932e-01
ut_1_214 7.2433165280912259e-01
ut_1_146 1.9699541569169348e+00
fFP_1_44 5
fFP_1_198 5
fFP_1_202 5
fFP_1_47 5
fFP_1_197 5
fFP_1_199 5
fFP_1_29 3
fFP_1_97 5
fFP_1_15 5
fFP_1_43 5
fFP_1_123 5
fFP_1_42 0
fFP_1_205 5
fFP_1_122 5
fFP_1_133 0
fFP_1_220 5
fFP_1_101 0
fFP_1_86 5
fFP_1_17 3
fFP_1_130 3
fFP_1_208 3
fFP_1_214 5
fFP_1_146 5
dt_93 5.0300195514333774e+00
dt_80 4.5565672131261010e+00
dt_68 4.1539541569169121e+00
dt_67 3.2160511204018567e+00
dt_63 3.6342067030527048e+00
dt_92 2.7767259611271982e+00
dt_82 6.2829852966356414e+00
dt_66 2.8040962309854827e+00
dt_56 2.7803316528083029e+00
dt_40 3.6022038160178140e+00
dtt_93 2.5150097757166886e+01
dtt_80 2.2782836065630534e+01
dtt_68 2.0769770784584558e+01
dtt_67 1.6080255602114377e+01
dtt_63 1.8171033515263524e+01
dtt_92 1.3883629805635991e+01
dtt_82 3.1414926483178206e+01
dtt_66 1.4020481154927413e+01
dtt_56 1.3901658264041515e+01
dtt_40 1.8011019080089071e+01
dep_cost 1.0543777825562554e+05
log_cost 1.6769834843932178e+04
ort_y_1_44_93 0
ort_y_1_44_80 48
ort_y_1_44_68 0
ort_y_1_44_67 0
ort_y_1_44_63 0
ort_y_1_44_92 0
ort_y_1_44_82 0
ort_y_1_44_66 0
ort_y_1_44_56 0
ort_y_1_44_40 0
ort_y_1_198_93 48
ort_y_1_198_80 0
ort_y_1_198_68 0
ort_y_1_198_67 0
ort_y_1_198_63 0
ort_y_1_198_92 0
ort_y_1_198_82 0
ort_y_1_198_66 0
ort_y_1_198_56 0
ort_y_1_198_40 0
ort_y_1_202_93 0
ort_y_1_202_80 0
ort_y_1_202_68 0
ort_y_1_202_67 0
ort_y_1_202_63 0
ort_y_1_202_92 0
ort_y_1_202_82 0
ort_y_1_202_66 0
ort_y_1_202_56 0
ort_y_1_202_40 48
ort_y_1_47_93 0
ort_y_1_47_80 48
ort_y_1_47_68 0
ort_y_1_47_67 0
ort_y_1_47_63 0
ort_y_1_47_92 0
ort_y_1_47_82 0
ort_y_1_47_66 0
ort_y_1_47_56 0
ort_y_1_47_40 0
ort_y_1_197_93 0
ort_y_1_197_80 0
ort_y_1_197_68 0
ort_y_1_197_67 0
ort_y_1_197_63 48
ort_y_1_197_92 0
ort_y_1_197_82 0
ort_y_1_197_66 0
ort_y_1_197_56 0
ort_y_1_197_40 0
ort_y_1_199_93 48
ort_y_1_199_80 0
ort_y_1_199_68 0
ort_y_1_199_67 0
ort_y_1_199_63 0
ort_y_1_199_92 0
ort_y_1_199_82 0
ort_y_1_199_66 0
ort_y_1_199_56 0
ort_y_1_199_40 0
ort_y_1_29_93 0
ort_y_1_29_80 0
ort_y_1_29_68 0
ort_y_1_29_67 80
ort_y_1_29_63 0
ort_y_1_29_92 0
ort_y_1_29_82 0
ort_y_1_29_66 0
ort_y_1_29_56 0
ort_y_1_29_40 0
ort_y_1_97_93 0
ort_y_1_97_80 0
ort_y_1_97_68 0
ort_y_1_97_67 48
ort_y_1_97_63 0
ort_y_1_97_92 0
ort_y_1_97_82 0
ort_y_1_97_66 0
ort_y_1_97_56 0
ort_y_1_97_40 0
ort_y_1_15_93 0
ort_y_1_15_80 0
ort_y_1_15_68 0
ort_y_1_15_67 0
ort_y_1_15_63 0
ort_y_1_15_92 0
ort_y_1_15_82 0
ort_y_1_15_66 0
ort_y_1_15_56 48
ort_y_1_15_40 0
ort_y_1_43_93 0
ort_y_1_43_80 0
ort_y_1_43_68 0
ort_y_1_43_67 0
ort_y_1_43_63 0
ort_y_1_43_92 0
ort_y_1_43_82 48
ort_y_1_43_66 0
ort_y_1_43_56 0
ort_y_1_43_40 0
ort_y_1_123_93 0
ort_y_1_123_80 0
ort_y_1_123_68 0
ort_y_1_123_67 0
ort_y_1_123_63 0
ort_y_1_123_92 0
ort_y_1_123_82 0
ort_y_1_123_66 48
ort_y_1_123_56 0
ort_y_1_123_40 0
ort_y_1_42_93 0
ort_y_1_42_80 0
ort_y_1_42_68 0
ort_y_1_42_67 0
ort_y_1_42_63 0
ort_y_1_42_92 0
ort_y_1_42_82 0
ort_y_1_42_66 0
ort_y_1_42_56 0
ort_y_1_42_40 0
ort_y_1_205_93 0
ort_y_1_205_80 0
ort_y_1_205_68 0
ort_y_1_205_67 0
ort_y_1_205_63 0
ort_y_1_205_92 0
ort_y_1_205_82 0
ort_y_1_205_66 0
ort_y_1_205_56 0
ort_y_1_205_40 48
ort_y_1_122_93 0
ort_y_1_122_80 0
ort_y_1_122_68 0
ort_y_1_122_67 0
ort_y_1_122_63 0
ort_y_1_122_92 0
ort_y_1_122_82 48
ort_y_1_122_66 0
ort_y_1_122_56 0
ort_y_1_122_40 0
ort_y_1_133_93 0
ort_y_1_133_80 0
ort_y_1_133_68 0
ort_y_1_133_67 0
ort_y_1_133_63 0
ort_y_1_133_92 0
ort_y_1_133_82 0
ort_y_1_133_66 0
ort_y_1_133_56 0
ort_y_1_133_40 0
ort_y_1_220_93 0
ort_y_1_220_80 0
ort_y_1_220_68 0
ort_y_1_220_67 0
ort_y_1_220_63 48
ort_y_1_220_92 0
ort_y_1_220_82 0
ort_y_1_220_66 0
ort_y_1_220_56 0
ort_y_1_220_40 0
ort_y_1_101_93 0
ort_y_1_101_80 0
ort_y_1_101_68 0
ort_y_1_101_67 0
ort_y_1_101_63 0
ort_y_1_101_92 0
ort_y_1_101_82 0
ort_y_1_101_66 0
ort_y_1_101_56 0
ort_y_1_101_40 0
ort_y_1_86_93 0
ort_y_1_86_80 0
ort_y_1_86_68 48
ort_y_1_86_67 0
ort_y_1_86_63 0
ort_y_1_86_92 0
ort_y_1_86_82 0
ort_y_1_86_66 0
ort_y_1_86_56 0
ort_y_1_86_40 0
ort_y_1_17_93 0
ort_y_1_17_80 0
ort_y_1_17_68 0
ort_y_1_17_67 0
ort_y_1_17_63 0
ort_y_1_17_92 0
ort_y_1_17_82 0
ort_y_1_17_66 80
ort_y_1_17_56 0
ort_y_1_17_40 0
ort_y_1_130_93 0
ort_y_1_130_80 0
ort_y_1_130_68 0
ort_y_1_130_67 0
ort_y_1_130_63 0
ort_y_1_130_92 80
ort_y_1_130_82 0
ort_y_1_130_66 0
ort_y_1_130_56 0
ort_y_1_130_40 0
ort_y_1_208_93 0
ort_y_1_208_80 0
ort_y_1_208_68 0
ort_y_1_208_67 0
ort_y_1_208_63 0
ort_y_1_208_92 80
ort_y_1_208_82 0
ort_y_1_208_66 0
ort_y_1_208_56 0
ort_y_1_208_40 0
ort_y_1_214_93 0
ort_y_1_214_80 0
ort_y_1_214_68 0
ort_y_1_214_67 0
ort_y_1_214_63 0
ort_y_1_214_92 0
ort_y_1_214_82 0
ort_y_1_214_66 0
ort_y_1_214_56 48
ort_y_1_214_40 0
ort_y_1_146_93 0
ort_y_1_146_80 0
ort_y_1_146_68 48
ort_y_1_146_67 0
ort_y_1_146_63 0
ort_y_1_146_92 0
ort_y_1_146_82 0
ort_y_1_146_66 0
ort_y_1_146_56 0
ort_y_1_146_40 0
ut_y_1_44_93 0
ut_y_1_44_80 2.1165672131251276e+00
ut_y_1_44_68 0
ut_y_1_44_67 0
ut_y_1_44_63 0
ut_y_1_44_92 0
ut_y_1_44_82 0
ut_y_1_44_66 0
ut_y_1_44_56 0
ut_y_1_44_40 0
ut_y_1_198_93 2.79001955143303
ut_y_1_198_80 0
ut_y_1_198_68 0
ut_y_1_198_67 0
ut_y_1_198_63 0
ut_y_1_198_92 0
ut_y_1_198_82 0
ut_y_1_198_66 0
ut_y_1_198_56 0
ut_y_1_198_40 0
ut_y_1_202_93 0
ut_y_1_202_80 0
ut_y_1_202_68 0
ut_y_1_202_67 0
ut_y_1_202_63 0
ut_y_1_202_92 0
ut_y_1_202_82 0
ut_y_1_202_66 0
ut_y_1_202_56 0
ut_y_1_202_40 1.6102038160178087e+00
ut_y_1_47_93 0
ut_y_1_47_80 2.1165672131253945e+00
ut_y_1_47_68 0
ut_y_1_47_67 0
ut_y_1_47_63 0
ut_y_1_47_92 0
ut_y_1_47_82 0
ut_y_1_47_66 0
ut_y_1_47_56 0
ut_y_1_47_40 0
ut_y_1_197_93 0
ut_y_1_197_80 0
ut_y_1_197_68 0
ut_y_1_197_67 0
ut_y_1_197_63 1.5302067030528348e+00
ut_y_1_197_92 0
ut_y_1_197_82 0
ut_y_1_197_66 0
ut_y_1_197_56 0
ut_y_1_197_40 0
ut_y_1_199_93 2.79001955143307
ut_y_1_199_80 0
ut_y_1_199_68 0
ut_y_1_199_67 0
ut_y_1_199_63 0
ut_y_1_199_92 0
ut_y_1_199_82 0
ut_y_1_199_66 0
ut_y_1_199_56 0
ut_y_1_199_40 0
ut_y_1_29_93 0
ut_y_1_29_80 0
ut_y_1_29_68 0
ut_y_1_29_67 1.2400511204224369e+00
ut_y_1_29_63 0
ut_y_1_29_92 0
ut_y_1_29_82 0
ut_y_1_29_66 0
ut_y_1_29_56 0
ut_y_1_29_40 0
ut_y_1_97_93 0
ut_y_1_97_80 0
ut_y_1_97_68 0
ut_y_1_97_67 7.2325514375808009e-01
ut_y_1_97_63 0
ut_y_1_97_92 0
ut_y_1_97_82 0
ut_y_1_97_66 0
ut_y_1_97_56 0
ut_y_1_97_40 0
ut_y_1_15_93 0
ut_y_1_15_80 0
ut_y_1_15_68 0
ut_y_1_15_67 0
ut_y_1_15_63 0
ut_y_1_15_92 0
ut_y_1_15_82 0
ut_y_1_15_66 0
ut_y_1_15_56 7.2433165280830725e-01
ut_y_1_15_40 0
ut_y_1_43_93 0
ut_y_1_43_80 0
ut_y_1_43_68 0
ut_y_1_43_67 0
ut_y_1_43_63 0
ut_y_1_43_92 0
ut_y_1_43_82 3.8749852966360061e+00
ut_y_1_43_66 0
ut_y_1_43_56 0
ut_y_1_43_40 0
ut_y_1_123_93 0
ut_y_1_123_80 0
ut_y_1_123_68 0
ut_y_1_123_67 0
ut_y_1_123_63 0
ut_y_1_123_92 0
ut_y_1_123_82 0
ut_y_1_123_66 4.4409623098548429e-01
ut_y_1_123_56 0
ut_y_1_123_40 0
ut_y_1_42_93 0
ut_y_1_42_80 0
ut_y_1_42_68 0
ut_y_1_42_67 0
ut_y_1_42_63 0
ut_y_1_42_92 0
ut_y_1_42_82 0
ut_y_1_42_66 0
ut_y_1_42_56 0
ut_y_1_42_40 0
ut_y_1_205_93 0
ut_y_1_205_80 0
ut_y_1_205_68 0
ut_y_1_205_67 0
ut_y_1_205_63 0
ut_y_1_205_92 0
ut_y_1_205_82 0
ut_y_1_205_66 0
ut_y_1_205_56 0
ut_y_1_205_40 1.6102038160178698e+00
ut_y_1_122_93 0
ut_y_1_122_80 0
ut_y_1_122_68 0
ut_y_1_122_67 0
ut_y_1_122_63 0
ut_y_1_122_92 0
ut_y_1_122_82 3.8749852966322886e+00
ut_y_1_122_66 0
ut_y_1_122_56 0
ut_y_1_122_40 0
ut_y_1_133_93 0
ut_y_1_133_80 0
ut_y_1_133_68 0
ut_y_1_133_67 0
ut_y_1_133_63 0
ut_y_1_133_92 0
ut_y_1_133_82 0
ut_y_1_133_66 0
ut_y_1_133_56 0
ut_y_1_133_40 0
ut_y_1_220_93 0
ut_y_1_220_80 0
ut_y_1_220_68 0
ut_y_1_220_67 0
ut_y_1_220_63 1.5302067030521158e+00
ut_y_1_220_92 0
ut_y_1_220_82 0
ut_y_1_220_66 0
ut_y_1_220_56 0
ut_y_1_220_40 0
ut_y_1_101_93 0
ut_y_1_101_80 0
ut_y_1_101_68 0
ut_y_1_101_67 0
ut_y_1_101_63 0
ut_y_1_101_92 0
ut_y_1_101_82 0
ut_y_1_101_66 0
ut_y_1_101_56 0
ut_y_1_101_40 0
ut_y_1_86_93 0
ut_y_1_86_80 0
ut_y_1_86_68 1.9699541569177863e+00
ut_y_1_86_67 0
ut_y_1_86_63 0
ut_y_1_86_92 0
ut_y_1_86_82 0
ut_y_1_86_66 0
ut_y_1_86_56 0
ut_y_1_86_40 0
ut_y_1_17_93 0
ut_y_1_17_80 0
ut_y_1_17_68 0
ut_y_1_17_67 0
ut_y_1_17_63 0
ut_y_1_17_92 0
ut_y_1_17_82 0
ut_y_1_17_66 7.5852913765130658e-01
ut_y_1_17_56 0
ut_y_1_17_40 0
ut_y_1_130_93 0
ut_y_1_130_80 0
ut_y_1_130_68 0
ut_y_1_130_67 0
ut_y_1_130_63 0
ut_y_1_130_92 6.4072596112719071e-01
ut_y_1_130_82 0
ut_y_1_130_66 0
ut_y_1_130_56 0
ut_y_1_130_40 0
ut_y_1_208_93 0
ut_y_1_208_80 0
ut_y_1_208_68 0
ut_y_1_208_67 0
ut_y_1_208_63 0
ut_y_1_208_92 6.4072596112670110e-01
ut_y_1_208_82 0
ut_y_1_208_66 0
ut_y_1_208_56 0
ut_y_1_208_40 0
ut_y_1_214_93 0
ut_y_1_214_80 0
ut_y_1_214_68 0
ut_y_1_214_67 0
ut_y_1_214_63 0
ut_y_1_214_92 0
ut_y_1_214_82 0
ut_y_1_214_66 0
ut_y_1_214_56 7.2433165280770240e-01
ut_y_1_214_40 0
ut_y_1_146_93 0
ut_y_1_146_80 0
ut_y_1_146_68 1.9699541569153007e+00
ut_y_1_146_67 0
ut_y_1_146_63 0
ut_y_1_146_92 0
ut_y_1_146_82 0
ut_y_1_146_66 0
ut_y_1_146_56 0
ut_y_1_146_40 0
ort_fFP_1_44 0
ort_fFP_1_198 0
ort_fFP_1_202 0
ort_fFP_1_47 0
ort_fFP_1_197 0
ort_fFP_1_199 0
ort_fFP_1_29 0
ort_fFP_1_97 0
ort_fFP_1_15 0
ort_fFP_1_43 0
ort_fFP_1_123 0
ort_fFP_1_42 0
ort_fFP_1_205 0
ort_fFP_1_122 0
ort_fFP_1_133 0
ort_fFP_1_220 0
ort_fFP_1_101 0
ort_fFP_1_86 0
ort_fFP_1_17 0
ort_fFP_1_130 0
ort_fFP_1_208 0
ort_fFP_1_214 0
ort_fFP_1_146 0
ort_fFP1_1_44 0
ort_fFP1_1_198 0
ort_fFP1_1_202 0
ort_fFP1_1_47 0
ort_fFP1_1_197 0
ort_fFP1_1_199 0
ort_fFP1_1_29 0
ort_fFP1_1_97 0
ort_fFP1_1_15 0
ort_fFP1_1_43 0
ort_fFP1_1_123 0
ort_fFP1_1_42 0
ort_fFP1_1_205 0
ort_fFP1_1_122 0
ort_fFP1_1_133 0
ort_fFP1_1_220 0
ort_fFP1_1_101 0
ort_fFP1_1_86 0
ort_fFP1_1_17 0
ort_fFP1_1_130 0
ort_fFP1_1_208 0
ort_fFP1_1_214 0
ort_fFP1_1_146 0
ort_fFP2_1_44 0
ort_fFP2_1_198 0
ort_fFP2_1_202 0
ort_fFP2_1_47 0
ort_fFP2_1_197 0
ort_fFP2_1_199 0
ort_fFP2_1_29 0
ort_fFP2_1_97 0
ort_fFP2_1_15 0
ort_fFP2_1_43 0
ort_fFP2_1_123 0
ort_fFP2_1_42 0
ort_fFP2_1_205 0
ort_fFP2_1_122 0
ort_fFP2_1_133 0
ort_fFP2_1_220 0
ort_fFP2_1_101 0
ort_fFP2_1_86 0
ort_fFP2_1_17 0
ort_fFP2_1_130 0
ort_fFP2_1_208 0
ort_fFP2_1_214 0
ort_fFP2_1_146 0
dt_fFP_1_44_93 0
dt_fFP_1_44_80 0
dt_fFP_1_44_68 0
dt_fFP_1_44_67 0
dt_fFP_1_44_63 0
dt_fFP_1_44_92 0
dt_fFP_1_44_82 0
dt_fFP_1_44_66 0
dt_fFP_1_44_56 0
dt_fFP_1_44_40 0
dt_fFP_1_198_93 0
dt_fFP_1_198_80 0
dt_fFP_1_198_68 0
dt_fFP_1_198_67 0
dt_fFP_1_198_63 0
dt_fFP_1_198_92 0
dt_fFP_1_198_82 0
dt_fFP_1_198_66 0
dt_fFP_1_198_56 0
dt_fFP_1_198_40 0
dt_fFP_1_202_93 0
dt_fFP_1_202_80 0
dt_fFP_1_202_68 0
dt_fFP_1_202_67 0
dt_fFP_1_202_63 0
dt_fFP_1_202_92 0
dt_fFP_1_202_82 0
dt_fFP_1_202_66 0
dt_fFP_1_202_56 0
dt_fFP_1_202_40 0
dt_fFP_1_47_93 0
dt_fFP_1_47_80 0
dt_fFP_1_47_68 0
dt_fFP_1_47_67 0
dt_fFP_1_47_63 0
dt_fFP_1_47_92 0
dt_fFP_1_47_82 0
dt_fFP_1_47_66 0
dt_fFP_1_47_56 0
dt_fFP_1_47_40 0
dt_fFP_1_197_93 0
dt_fFP_1_197_80 0
dt_fFP_1_197_68 0
dt_fFP_1_197_67 0
dt_fFP_1_197_63 0
dt_fFP_1_197_92 0
dt_fFP_1_197_82 0
dt_fFP_1_197_66 0
dt_fFP_1_197_56 0
dt_fFP_1_197_40 0
dt_fFP_1_199_93 0
dt_fFP_1_199_80 0
dt_fFP_1_199_68 0
dt_fFP_1_199_67 0
dt_fFP_1_199_63 0
dt_fFP_1_199_92 0
dt_fFP_1_199_82 0
dt_fFP_1_199_66 0
dt_fFP_1_199_56 0
dt_fFP_1_199_40 0
dt_fFP_1_29_93 0
dt_fFP_1_29_80 0
dt_fFP_1_29_68 0
dt_fFP_1_29_67 0
dt_fFP_1_29_63 0
dt_fFP_1_29_92 0
dt_fFP_1_29_82 0
dt_fFP_1_29_66 0
dt_fFP_1_29_56 0
dt_fFP_1_29_40 0
dt_fFP_1_97_93 0
dt_fFP_1_97_80 0
dt_fFP_1_97_68 0
dt_fFP_1_97_67 0
dt_fFP_1_97_63 0
dt_fFP_1_97_92 0
dt_fFP_1_97_82 0
dt_fFP_1_97_66 0
dt_fFP_1_97_56 0
dt_fFP_1_97_40 0
dt_fFP_1_15_93 0
dt_fFP_1_15_80 0
dt_fFP_1_15_68 0
dt_fFP_1_15_67 0
dt_fFP_1_15_63 0
dt_fFP_1_15_92 0
dt_fFP_1_15_82 0
dt_fFP_1_15_66 0
dt_fFP_1_15_56 0
dt_fFP_1_15_40 0
dt_fFP_1_43_93 0
dt_fFP_1_43_80 0
dt_fFP_1_43_68 0
dt_fFP_1_43_67 0
dt_fFP_1_43_63 0
dt_fFP_1_43_92 0
dt_fFP_1_43_82 0
dt_fFP_1_43_66 0
dt_fFP_1_43_56 0
dt_fFP_1_43_40 0
dt_fFP_1_123_93 0
dt_fFP_1_123_80 0
dt_fFP_1_123_68 0
dt_fFP_1_123_67 0
dt_fFP_1_123_63 0
dt_fFP_1_123_92 0
dt_fFP_1_123_82 0
dt_fFP_1_123_66 0
dt_fFP_1_123_56 0
dt_fFP_1_123_40 0
dt_fFP_1_42_93 0
dt_fFP_1_42_80 0
dt_fFP_1_42_68 0
dt_fFP_1_42_67 0
dt_fFP_1_42_63 0
dt_fFP_1_42_92 0
dt_fFP_1_42_82 0
dt_fFP_1_42_66 0
dt_fFP_1_42_56 0
dt_fFP_1_42_40 0
dt_fFP_1_205_93 0
dt_fFP_1_205_80 0
dt_fFP_1_205_68 0
dt_fFP_1_205_67 0
dt_fFP_1_205_63 0
dt_fFP_1_205_92 0
dt_fFP_1_205_82 0
dt_fFP_1_205_66 0
dt_fFP_1_205_56 0
dt_fFP_1_205_40 0
dt_fFP_1_122_93 0
dt_fFP_1_122_80 0
dt_fFP_1_122_68 0
dt_fFP_1_122_67 0
dt_fFP_1_122_63 0
dt_fFP_1_122_92 0
dt_fFP_1_122_82 0
dt_fFP_1_122_66 0
dt_fFP_1_122_56 0
dt_fFP_1_122_40 0
dt_fFP_1_133_93 0
dt_fFP_1_133_80 0
dt_fFP_1_133_68 0
dt_fFP_1_133_67 0
dt_fFP_1_133_63 0
dt_fFP_1_133_92 0
dt_fFP_1_133_82 0
dt_fFP_1_133_66 0
dt_fFP_1_133_56 0
dt_fFP_1_133_40 0
dt_fFP_1_220_93 0
dt_fFP_1_220_80 0
dt_fFP_1_220_68 0
dt_fFP_1_220_67 0
dt_fFP_1_220_63 0
dt_fFP_1_220_92 0
dt_fFP_1_220_82 0
dt_fFP_1_220_66 0
dt_fFP_1_220_56 0
dt_fFP_1_220_40 0
dt_fFP_1_101_93 0
dt_fFP_1_101_80 0
dt_fFP_1_101_68 0
dt_fFP_1_101_67 0
dt_fFP_1_101_63 0
dt_fFP_1_101_92 0
dt_fFP_1_101_82 0
dt_fFP_1_101_66 0
dt_fFP_1_101_56 0
dt_fFP_1_101_40 0
dt_fFP_1_86_93 0
dt_fFP_1_86_80 0
dt_fFP_1_86_68 0
dt_fFP_1_86_67 0
dt_fFP_1_86_63 0
dt_fFP_1_86_92 0
dt_fFP_1_86_82 0
dt_fFP_1_86_66 0
dt_fFP_1_86_56 0
dt_fFP_1_86_40 0
dt_fFP_1_17_93 0
dt_fFP_1_17_80 0
dt_fFP_1_17_68 0
dt_fFP_1_17_67 0
dt_fFP_1_17_63 0
dt_fFP_1_17_92 0
dt_fFP_1_17_82 0
dt_fFP_1_17_66 0
dt_fFP_1_17_56 0
dt_fFP_1_17_40 0
dt_fFP_1_130_93 0
dt_fFP_1_130_80 0
dt_fFP_1_130_68 0
dt_fFP_1_130_67 0
dt_fFP_1_130_63 0
dt_fFP_1_130_92 0
dt_fFP_1_130_82 0
dt_fFP_1_130_66 0
dt_fFP_1_130_56 0
dt_fFP_1_130_40 0
dt_fFP_1_208_93 0
dt_fFP_1_208_80 0
dt_fFP_1_208_68 0
dt_fFP_1_208_67 0
dt_fFP_1_208_63 0
dt_fFP_1_208_92 0
dt_fFP_1_208_82 0
dt_fFP_1_208_66 0
dt_fFP_1_208_56 0
dt_fFP_1_208_40 0
dt_fFP_1_214_93 0
dt_fFP_1_214_80 0
dt_fFP_1_214_68 0
dt_fFP_1_214_67 0
dt_fFP_1_214_63 0
dt_fFP_1_214_92 0
dt_fFP_1_214_82 0
dt_fFP_1_214_66 0
dt_fFP_1_214_56 0
dt_fFP_1_214_40 0
dt_fFP_1_146_93 0
dt_fFP_1_146_80 0
dt_fFP_1_146_68 0
dt_fFP_1_146_67 0
dt_fFP_1_146_63 0
dt_fFP_1_146_92 0
dt_fFP_1_146_82 0
dt_fFP_1_146_66 0
dt_fFP_1_146_56 0
dt_fFP_1_146_40 0
dt_fFP1_1_44_93 0
dt_fFP1_1_44_80 0
dt_fFP1_1_44_68 0
dt_fFP1_1_44_67 0
dt_fFP1_1_44_63 0
dt_fFP1_1_44_92 0
dt_fFP1_1_44_82 0
dt_fFP1_1_44_66 0
dt_fFP1_1_44_56 0
dt_fFP1_1_44_40 0
dt_fFP1_1_198_93 0
dt_fFP1_1_198_80 0
dt_fFP1_1_198_68 0
dt_fFP1_1_198_67 0
dt_fFP1_1_198_63 0
dt_fFP1_1_198_92 0
dt_fFP1_1_198_82 0
dt_fFP1_1_198_66 0
dt_fFP1_1_198_56 0
dt_fFP1_1_198_40 0
dt_fFP1_1_202_93 0
dt_fFP1_1_202_80 0
dt_fFP1_1_202_68 0
dt_fFP1_1_202_67 0
dt_fFP1_1_202_63 0
dt_fFP1_1_202_92 0
dt_fFP1_1_202_82 0
dt_fFP1_1_202_66 0
dt_fFP1_1_202_56 0
dt_fFP1_1_202_40 0
dt_fFP1_1_47_93 0
dt_fFP1_1_47_80 0
dt_fFP1_1_47_68 0
dt_fFP1_1_47_67 0
dt_fFP1_1_47_63 0
dt_fFP1_1_47_92 0
dt_fFP1_1_47_82 0
dt_fFP1_1_47_66 0
dt_fFP1_1_47_56 0
dt_fFP1_1_47_40 0
dt_fFP1_1_197_93 0
dt_fFP1_1_197_80 0
dt_fFP1_1_197_68 0
dt_fFP1_1_197_67 0
dt_fFP1_1_197_63 0
dt_fFP1_1_197_92 0
dt_fFP1_1_197_82 0
dt_fFP1_1_197_66 0
dt_fFP1_1_197_56 0
dt_fFP1_1_197_40 0
dt_fFP1_1_199_93 0
dt_fFP1_1_199_80 0
dt_fFP1_1_199_68 0
dt_fFP1_1_199_67 0
dt_fFP1_1_199_63 0
dt_fFP1_1_199_92 0
dt_fFP1_1_199_82 0
dt_fFP1_1_199_66 0
dt_fFP1_1_199_56 0
dt_fFP1_1_199_40 0
dt_fFP1_1_29_93 0
dt_fFP1_1_29_80 0
dt_fFP1_1_29_68 0
dt_fFP1_1_29_67 0
dt_fFP1_1_29_63 0
dt_fFP1_1_29_92 0
dt_fFP1_1_29_82 0
dt_fFP1_1_29_66 0
dt_fFP1_1_29_56 0
dt_fFP1_1_29_40 0
dt_fFP1_1_97_93 0
dt_fFP1_1_97_80 0
dt_fFP1_1_97_68 0
dt_fFP1_1_97_67 0
dt_fFP1_1_97_63 0
dt_fFP1_1_97_92 0
dt_fFP1_1_97_82 0
dt_fFP1_1_97_66 0
dt_fFP1_1_97_56 0
dt_fFP1_1_97_40 0
dt_fFP1_1_15_93 0
dt_fFP1_1_15_80 0
dt_fFP1_1_15_68 0
dt_fFP1_1_15_67 0
dt_fFP1_1_15_63 0
dt_fFP1_1_15_92 0
dt_fFP1_1_15_82 0
dt_fFP1_1_15_66 0
dt_fFP1_1_15_56 0
dt_fFP1_1_15_40 0
dt_fFP1_1_43_93 0
dt_fFP1_1_43_80 0
dt_fFP1_1_43_68 0
dt_fFP1_1_43_67 0
dt_fFP1_1_43_63 0
dt_fFP1_1_43_92 0
dt_fFP1_1_43_82 0
dt_fFP1_1_43_66 0
dt_fFP1_1_43_56 0
dt_fFP1_1_43_40 0
dt_fFP1_1_123_93 0
dt_fFP1_1_123_80 0
dt_fFP1_1_123_68 0
dt_fFP1_1_123_67 0
dt_fFP1_1_123_63 0
dt_fFP1_1_123_92 0
dt_fFP1_1_123_82 0
dt_fFP1_1_123_66 0
dt_fFP1_1_123_56 0
dt_fFP1_1_123_40 0
dt_fFP1_1_42_93 0
dt_fFP1_1_42_80 0
dt_fFP1_1_42_68 0
dt_fFP1_1_42_67 0
dt_fFP1_1_42_63 0
dt_fFP1_1_42_92 0
dt_fFP1_1_42_82 0
dt_fFP1_1_42_66 0
dt_fFP1_1_42_56 0
dt_fFP1_1_42_40 0
dt_fFP1_1_205_93 0
dt_fFP1_1_205_80 0
dt_fFP1_1_205_68 0
dt_fFP1_1_205_67 0
dt_fFP1_1_205_63 0
dt_fFP1_1_205_92 0
dt_fFP1_1_205_82 0
dt_fFP1_1_205_66 0
dt_fFP1_1_205_56 0
dt_fFP1_1_205_40 0
dt_fFP1_1_122_93 0
dt_fFP1_1_122_80 0
dt_fFP1_1_122_68 0
dt_fFP1_1_122_67 0
dt_fFP1_1_122_63 0
dt_fFP1_1_122_92 0
dt_fFP1_1_122_82 0
dt_fFP1_1_122_66 0
dt_fFP1_1_122_56 0
dt_fFP1_1_122_40 0
dt_fFP1_1_133_93 0
dt_fFP1_1_133_80 0
dt_fFP1_1_133_68 0
dt_fFP1_1_133_67 0
dt_fFP1_1_133_63 0
dt_fFP1_1_133_92 0
dt_fFP1_1_133_82 0
dt_fFP1_1_133_66 0
dt_fFP1_1_133_56 0
dt_fFP1_1_133_40 0
dt_fFP1_1_220_93 0
dt_fFP1_1_220_80 0
dt_fFP1_1_220_68 0
dt_fFP1_1_220_67 0
dt_fFP1_1_220_63 0
dt_fFP1_1_220_92 0
dt_fFP1_1_220_82 0
dt_fFP1_1_220_66 0
dt_fFP1_1_220_56 0
dt_fFP1_1_220_40 0
dt_fFP1_1_101_93 0
dt_fFP1_1_101_80 0
dt_fFP1_1_101_68 0
dt_fFP1_1_101_67 0
dt_fFP1_1_101_63 0
dt_fFP1_1_101_92 0
dt_fFP1_1_101_82 0
dt_fFP1_1_101_66 0
dt_fFP1_1_101_56 0
dt_fFP1_1_101_40 0
dt_fFP1_1_86_93 0
dt_fFP1_1_86_80 0
dt_fFP1_1_86_68 0
dt_fFP1_1_86_67 0
dt_fFP1_1_86_63 0
dt_fFP1_1_86_92 0
dt_fFP1_1_86_82 0
dt_fFP1_1_86_66 0
dt_fFP1_1_86_56 0
dt_fFP1_1_86_40 0
dt_fFP1_1_17_93 0
dt_fFP1_1_17_80 0
dt_fFP1_1_17_68 0
dt_fFP1_1_17_67 0
dt_fFP1_1_17_63 0
dt_fFP1_1_17_92 0
dt_fFP1_1_17_82 0
dt_fFP1_1_17_66 0
dt_fFP1_1_17_56 0
dt_fFP1_1_17_40 0
dt_fFP1_1_130_93 0
dt_fFP1_1_130_80 0
dt_fFP1_1_130_68 0
dt_fFP1_1_130_67 0
dt_fFP1_1_130_63 0
dt_fFP1_1_130_92 0
dt_fFP1_1_130_82 0
dt_fFP1_1_130_66 0
dt_fFP1_1_130_56 0
dt_fFP1_1_130_40 0
dt_fFP1_1_208_93 0
dt_fFP1_1_208_80 0
dt_fFP1_1_208_68 0
dt_fFP1_1_208_67 0
dt_fFP1_1_208_63 0
dt_fFP1_1_208_92 0
dt_fFP1_1_208_82 0
dt_fFP1_1_208_66 0
dt_fFP1_1_208_56 0
dt_fFP1_1_208_40 0
dt_fFP1_1_214_93 0
dt_fFP1_1_214_80 0
dt_fFP1_1_214_68 0
dt_fFP1_1_214_67 0
dt_fFP1_1_214_63 0
dt_fFP1_1_214_92 0
dt_fFP1_1_214_82 0
dt_fFP1_1_214_66 0
dt_fFP1_1_214_56 0
dt_fFP1_1_214_40 0
dt_fFP1_1_146_93 0
dt_fFP1_1_146_80 0
dt_fFP1_1_146_68 0
dt_fFP1_1_146_67 0
dt_fFP1_1_146_63 0
dt_fFP1_1_146_92 0
dt_fFP1_1_146_82 0
dt_fFP1_1_146_66 0
dt_fFP1_1_146_56 0
dt_fFP1_1_146_40 0
dt_fFP2_1_44_93 0
dt_fFP2_1_44_80 0
dt_fFP2_1_44_68 0
dt_fFP2_1_44_67 0
dt_fFP2_1_44_63 0
dt_fFP2_1_44_92 0
dt_fFP2_1_44_82 0
dt_fFP2_1_44_66 0
dt_fFP2_1_44_56 0
dt_fFP2_1_44_40 0
dt_fFP2_1_198_93 0
dt_fFP2_1_198_80 0
dt_fFP2_1_198_68 0
dt_fFP2_1_198_67 0
dt_fFP2_1_198_63 0
dt_fFP2_1_198_92 0
dt_fFP2_1_198_82 0
dt_fFP2_1_198_66 0
dt_fFP2_1_198_56 0
dt_fFP2_1_198_40 0
dt_fFP2_1_202_93 0
dt_fFP2_1_202_80 0
dt_fFP2_1_202_68 0
dt_fFP2_1_202_67 0
dt_fFP2_1_202_63 0
dt_fFP2_1_202_92 0
dt_fFP2_1_202_82 0
dt_fFP2_1_202_66 0
dt_fFP2_1_202_56 0
dt_fFP2_1_202_40 0
dt_fFP2_1_47_93 0
dt_fFP2_1_47_80 0
dt_fFP2_1_47_68 0
dt_fFP2_1_47_67 0
dt_fFP2_1_47_63 0
dt_fFP2_1_47_92 0
dt_fFP2_1_47_82 0
dt_fFP2_1_47_66 0
dt_fFP2_1_47_56 0
dt_fFP2_1_47_40 0
dt_fFP2_1_197_93 0
dt_fFP2_1_197_80 0
dt_fFP2_1_197_68 0
dt_fFP2_1_197_67 0
dt_fFP2_1_197_63 0
dt_fFP2_1_197_92 0
dt_fFP2_1_197_82 0
dt_fFP2_1_197_66 0
dt_fFP2_1_197_56 0
dt_fFP2_1_197_40 0
dt_fFP2_1_199_93 0
dt_fFP2_1_199_80 0
dt_fFP2_1_199_68 0
dt_fFP2_1_199_67 0
dt_fFP2_1_199_63 0
dt_fFP2_1_199_92 0
dt_fFP2_1_199_82 0
dt_fFP2_1_199_66 0
dt_fFP2_1_199_56 0
dt_fFP2_1_199_40 0
dt_fFP2_1_29_93 0
dt_fFP2_1_29_80 0
dt_fFP2_1_29_68 0
dt_fFP2_1_29_67 0
dt_fFP2_1_29_63 0
dt_fFP2_1_29_92 0
dt_fFP2_1_29_82 0
dt_fFP2_1_29_66 0
dt_fFP2_1_29_56 0
dt_fFP2_1_29_40 0
dt_fFP2_1_97_93 0
dt_fFP2_1_97_80 0
dt_fFP2_1_97_68 0
dt_fFP2_1_97_67 0
dt_fFP2_1_97_63 0
dt_fFP2_1_97_92 0
dt_fFP2_1_97_82 0
dt_fFP2_1_97_66 0
dt_fFP2_1_97_56 0
dt_fFP2_1_97_40 0
dt_fFP2_1_15_93 0
dt_fFP2_1_15_80 0
dt_fFP2_1_15_68 0
dt_fFP2_1_15_67 0
dt_fFP2_1_15_63 0
dt_fFP2_1_15_92 0
dt_fFP2_1_15_82 0
dt_fFP2_1_15_66 0
dt_fFP2_1_15_56 0
dt_fFP2_1_15_40 0
dt_fFP2_1_43_93 0
dt_fFP2_1_43_80 0
dt_fFP2_1_43_68 0
dt_fFP2_1_43_67 0
dt_fFP2_1_43_63 0
dt_fFP2_1_43_92 0
dt_fFP2_1_43_82 0
dt_fFP2_1_43_66 0
dt_fFP2_1_43_56 0
dt_fFP2_1_43_40 0
dt_fFP2_1_123_93 0
dt_fFP2_1_123_80 0
dt_fFP2_1_123_68 0
dt_fFP2_1_123_67 0
dt_fFP2_1_123_63 0
dt_fFP2_1_123_92 0
dt_fFP2_1_123_82 0
dt_fFP2_1_123_66 0
dt_fFP2_1_123_56 0
dt_fFP2_1_123_40 0
dt_fFP2_1_42_93 0
dt_fFP2_1_42_80 0
dt_fFP2_1_42_68 0
dt_fFP2_1_42_67 0
dt_fFP2_1_42_63 0
dt_fFP2_1_42_92 0
dt_fFP2_1_42_82 0
dt_fFP2_1_42_66 0
dt_fFP2_1_42_56 0
dt_fFP2_1_42_40 0
dt_fFP2_1_205_93 0
dt_fFP2_1_205_80 0
dt_fFP2_1_205_68 0
dt_fFP2_1_205_67 0
dt_fFP2_1_205_63 0
dt_fFP2_1_205_92 0
dt_fFP2_1_205_82 0
dt_fFP2_1_205_66 0
dt_fFP2_1_205_56 0
dt_fFP2_1_205_40 0
dt_fFP2_1_122_93 0
dt_fFP2_1_122_80 0
dt_fFP2_1_122_68 0
dt_fFP2_1_122_67 0
dt_fFP2_1_122_63 0
dt_fFP2_1_122_92 0
dt_fFP2_1_122_82 0
dt_fFP2_1_122_66 0
dt_fFP2_1_122_56 0
dt_fFP2_1_122_40 0
dt_fFP2_1_133_93 0
dt_fFP2_1_133_80 0
dt_fFP2_1_133_68 0
dt_fFP2_1_133_67 0
dt_fFP2_1_133_63 0
dt_fFP2_1_133_92 0
dt_fFP2_1_133_82 0
dt_fFP2_1_133_66 0
dt_fFP2_1_133_56 0
dt_fFP2_1_133_40 0
dt_fFP2_1_220_93 0
dt_fFP2_1_220_80 0
dt_fFP2_1_220_68 0
dt_fFP2_1_220_67 0
dt_fFP2_1_220_63 0
dt_fFP2_1_220_92 0
dt_fFP2_1_220_82 0
dt_fFP2_1_220_66 0
dt_fFP2_1_220_56 0
dt_fFP2_1_220_40 0
dt_fFP2_1_101_93 0
dt_fFP2_1_101_80 0
dt_fFP2_1_101_68 0
dt_fFP2_1_101_67 0
dt_fFP2_1_101_63 0
dt_fFP2_1_101_92 0
dt_fFP2_1_101_82 0
dt_fFP2_1_101_66 0
dt_fFP2_1_101_56 0
dt_fFP2_1_101_40 0
dt_fFP2_1_86_93 0
dt_fFP2_1_86_80 0
dt_fFP2_1_86_68 0
dt_fFP2_1_86_67 0
dt_fFP2_1_86_63 0
dt_fFP2_1_86_92 0
dt_fFP2_1_86_82 0
dt_fFP2_1_86_66 0
dt_fFP2_1_86_56 0
dt_fFP2_1_86_40 0
dt_fFP2_1_17_93 0
dt_fFP2_1_17_80 0
dt_fFP2_1_17_68 0
dt_fFP2_1_17_67 0
dt_fFP2_1_17_63 0
dt_fFP2_1_17_92 0
dt_fFP2_1_17_82 0
dt_fFP2_1_17_66 0
dt_fFP2_1_17_56 0
dt_fFP2_1_17_40 0
dt_fFP2_1_130_93 0
dt_fFP2_1_130_80 0
dt_fFP2_1_130_68 0
dt_fFP2_1_130_67 0
dt_fFP2_1_130_63 0
dt_fFP2_1_130_92 0
dt_fFP2_1_130_82 0
dt_fFP2_1_130_66 0
dt_fFP2_1_130_56 0
dt_fFP2_1_130_40 0
dt_fFP2_1_208_93 0
dt_fFP2_1_208_80 0
dt_fFP2_1_208_68 0
dt_fFP2_1_208_67 0
dt_fFP2_1_208_63 0
dt_fFP2_1_208_92 0
dt_fFP2_1_208_82 0
dt_fFP2_1_208_66 0
dt_fFP2_1_208_56 0
dt_fFP2_1_208_40 0
dt_fFP2_1_214_93 0
dt_fFP2_1_214_80 0
dt_fFP2_1_214_68 0
dt_fFP2_1_214_67 0
dt_fFP2_1_214_63 0
dt_fFP2_1_214_92 0
dt_fFP2_1_214_82 0
dt_fFP2_1_214_66 0
dt_fFP2_1_214_56 0
dt_fFP2_1_214_40 0
dt_fFP2_1_146_93 0
dt_fFP2_1_146_80 0
dt_fFP2_1_146_68 0
dt_fFP2_1_146_67 0
dt_fFP2_1_146_63 0
dt_fFP2_1_146_92 0
dt_fFP2_1_146_82 0
dt_fFP2_1_146_66 0
dt_fFP2_1_146_56 0
dt_fFP2_1_146_40 0
